benchmarks/VRPTW/TSPTW/solution/n80w80.004.txt.solution
1 17 42 59 20 74 31 38 75 61 58 11 46 72 13 73 71 62 4 78 54 80 40 29 45 22 9 3 23 25 32 2 67 34 37 8 77 41 33 66 57 24 21 53 50 16 19 60 52 65 49 70 64 36 28 63 39 15 18 7 43 26 79 35 44 12 27 56 68 47 10 51 48 5 69 55 76 14 81 6 30 
594
